NAME : problems/30-tsp/instance-47.tsp
COMMENT : No Comment
TYPE : TSP
DIMENSION: 30
EDGE_WEIGHT_TYPE : EUC_2D
NODE_COORD_SECTION
1 9975 9427 
2 4377 9252 
3 8329 8060 
4 3827 9144 
5 2949 3029 
6 425 2105 
7 366 9195 
8 1024 3930 
9 8973 334 
10 2241 3536 
11 5387 7785 
12 8570 9308 
13 5729 1668 
14 9735 6079 
15 6993 3181 
16 8074 7830 
17 6744 8650 
18 1414 6452 
19 4045 7891 
20 4206 3 
21 7714 1871 
22 57 2172 
23 5100 5845 
24 82 6840 
25 2321 9886 
26 5390 5112 
27 910 2221 
28 148 7196 
29 659 9751 
30 2765 6411 
EOF
